76287
143 142 141 140 139 138 127 126 117 118 119 120 121 122 123 124 125 0 1 27 28 29 2 3 4 5 6 7 8 9 10 11 12 13 25 26 14 15 16 17 18 19 20 21 22 23 133 132 134 135 136 137 131 130 106 107 108 109 110 111 112 129 128 113 114 115 116 101 85 84 83 82 81 80 79 78 77 76 75 74 73 72 105 104 103 102 86 87 88 89 90 91 92 93 94 95 96 97 98 99 100 30 31 52 53 64 65 63 62 61 60 58 59 55 54 57 56 51 32 33 34 35 49 50 48 36 37 47 46 45 66 67 68 69 71 70 44 43 42 38 39 40 41 24 
